Route 1: 69 100 61 81 80 65 90 55 70 68
Route 2: 71 93 92 91 95 64 56 83 66
Route 3: 88 98 53 82 99 86 52 57 74
Route 4: 62 67 94 96 72 41 39 54
Route 5: 2 6 4 45 46 8 7 78 60
Route 6: 51 76 89 63 85 84 50
Route 7: 12 14 47 17 16 15 13 9 11 10
Route 8: 21 48 18 20 49 19 22 23 25 24
Route 9: 38 36 35 37 40 43 44 42
Route 10: 73 79 5 3 1
Route 11: 59 87 97 75 58 77
Route 12: 33 32 30 28 26 27 29 31 34
Vehicles: 12
Distance: 1421.77
